
  22    4
  10   10   10   10

   0   0   0   0   0   5 2 3 4 5 6 
   4  10  10  10  10   6 19 11 10 9 8 7 
   4  10  10  10  10   9 20 19 18 17 16 12 11 10 9 
   5  10  10  10  10   4 18 14 9 7 
   7  10  10  10  10   6 21 17 16 15 14 9 
   2  10  10  10  10   5 19 17 15 14 13 
   1  10  10  10  10   4 17 16 15 13 
   3  10  10  10  10   4 20 18 16 14 
   2  10  10  10  10   1 13 
   4  10  10  10  10   1 15 
   9  10  10  10  10   1 14 
   9  10  10  10  10   1 13 
   7  10  10  10  10   1 22
   3  10  10  10  10   1 22
   2  10  10  10  10   1 22
   4  10  10  10  10   1 22
   6  10  10  10  10   1 22
   3  10  10  10  10   1 22
   3  10  10  10  10   1 22
   1  10  10  10  10   1 22
   6  10  10  10  10   1 22
   0   0   0   0   0   0 
